20
1000 1000 1000 
730 300 730 
269 717 642 
463 369 576 
642 464 728 
453 329 456 
455 667 642 
506 482 455 
560 362 381 
483 260 434 
693 345 434 
381 510 707 
456 586 707 
457 453 639 
707 658 455 
639 650 453 
691 359 730 
434 700 730 
576 291 483 
728 739 456 
545 742 693 
gcut10_3d
